
Gurobi 9.1.2 (linux64) logging started Tue Jul  6 18:57:30 2021


Gurobi 9.1.2 (linux64) logging started Tue Jul  6 18:57:32 2021

Gurobi Optimizer version 9.1.2 build v9.1.2rc0 (linux64)
Thread count: 40 physical cores, 40 logical processors, using up to 32 threads
Optimize a model with 59682 rows, 25295 columns and 179859 nonzeros
Model fingerprint: 0xecd974fa
Coefficient statistics:
  Matrix range     [3e-04, 4e+00]
  Objective range  [1e+01, 4e+05]
  Bounds range     [1e+03, 8e+06]
  RHS range        [6e+00, 3e+07]

Concurrent LP optimizer: primal simplex, dual simplex, and barrier
Showing barrier log only...

Presolve removed 18543 rows and 6517 columns
Presolve removed 7795 rows and 15870 columns
Presolve time: 0.66s
Presolved: 17500 rows, 43812 columns, 153800 nonzeros

Ordering time: 3.09s

Barrier statistics:
 Dense cols : 2
 Free vars  : 352
 AA' NZ     : 1.924e+05
 Factor NZ  : 1.443e+06 (roughly 40 MBytes of memory)
 Factor Ops : 2.165e+08 (less than 1 second per iteration)
 Threads    : 30

                  Objective                Residual
Iter       Primal          Dual         Primal    Dual     Compl     Time
   0  -3.80469462e+14 -1.50843290e+12  7.56e+07 1.09e+04  3.28e+11     5s
   1  -1.24182989e+14  2.66301170e+14  2.35e+07 1.70e+05  9.71e+10     6s
   2  -7.94715488e+13  2.83113257e+14  1.48e+07 6.04e+04  5.35e+10     7s
   3  -2.82087474e+13  2.44498499e+14  5.33e+06 2.72e+04  2.14e+10     8s
   4  -1.92538014e+13  1.72865830e+14  1.29e+06 9.89e+03  7.56e+09     9s
   5  -8.35870137e+12  9.56682467e+13  3.25e+05 4.55e+03  3.02e+09    10s
   6  -3.78849763e+12  4.26184103e+13  1.10e+05 1.79e+03  1.20e+09    11s
   7  -1.65355645e+12  1.98568433e+13  3.59e+04 7.68e+02  4.95e+08    12s
   8  -6.52047055e+11  5.47324222e+12  8.04e+03 1.81e+02  1.28e+08    13s
   9  -1.02365492e+11  1.54065747e+12  3.55e+02 4.51e+01  3.13e+07    14s
  10  -2.02619367e+10  5.91001518e+11  4.64e+01 1.58e+01  1.14e+07    15s
  11   5.75255939e+09  3.90075302e+11  2.07e+01 1.01e+01  7.16e+06    16s
  12   1.14056784e+10  3.55246657e+11  1.83e+01 9.00e+00  6.40e+06    17s
  13   1.58397162e+10  2.07319797e+11  1.49e+01 4.80e+00  3.55e+06    18s
  14   2.52193238e+10  1.39527230e+11  9.21e+00 2.78e+00  2.11e+06    18s
  15   3.41075677e+10  1.02297802e+11  5.50e+00 1.61e+00  1.25e+06    19s
  16   4.33896938e+10  8.48930409e+10  2.51e+00 1.03e+00  7.65e+05    20s
  17   4.46682814e+10  7.43560633e+10  2.13e+00 6.84e-01  5.45e+05    21s
  18   4.88333271e+10  6.13332720e+10  8.22e-01 2.60e-01  2.28e+05    22s
  19   5.03301412e+10  5.59478159e+10  3.25e-01 1.06e-01  1.02e+05    23s
  20   5.09907455e+10  5.39858927e+10  1.42e-01 5.67e-02  5.44e+04    24s
  21   5.11285768e+10  5.31799047e+10  1.10e-01 3.63e-02  3.72e+04    25s
  22   5.12422711e+10  5.28753172e+10  8.49e-02 2.87e-02  2.96e+04    26s
  23   5.13407053e+10  5.26410185e+10  6.37e-02 2.33e-02  2.36e+04    27s
  24   5.14054462e+10  5.23720748e+10  4.87e-02 1.67e-02  1.75e+04    28s
  25   5.14768290e+10  5.21186516e+10  3.37e-02 1.06e-02  1.16e+04    29s
  26   5.15237849e+10  5.19903961e+10  2.43e-02 9.52e-03  8.43e+03    30s
  27   5.15534843e+10  5.18674355e+10  1.82e-02 9.10e-03  5.66e+03    31s
  28   5.15860055e+10  5.17914610e+10  1.16e-02 8.59e-03  3.70e+03    32s
  29   5.16021179e+10  5.17578092e+10  8.49e-03 9.97e-03  2.81e+03    33s
  30   5.16117989e+10  5.17233774e+10  6.51e-03 1.62e-02  2.01e+03    34s
  31   5.16196884e+10  5.16939944e+10  4.90e-03 2.12e-02  1.33e+03    35s
  32   5.16250315e+10  5.16820957e+10  3.81e-03 2.26e-02  1.02e+03    37s
  33   5.16313297e+10  5.16676524e+10  2.54e-03 2.34e-02  6.51e+02    39s
  34   5.16355009e+10  5.16608206e+10  1.68e-03 1.97e-02  4.54e+02    42s
  35   5.16387392e+10  5.16576824e+10  1.63e-03 1.63e-02  3.41e+02    46s
  36   5.16408830e+10  5.16539539e+10  9.46e-04 1.21e-02  2.36e+02    48s
  37   5.16417409e+10  5.16504508e+10  6.86e-04 8.30e-03  1.57e+02    50s
  38   5.16422539e+10  5.16496602e+10  5.48e-04 9.27e-03  1.34e+02    53s
  39   5.16424950e+10  5.16473618e+10  4.99e-04 8.26e-03  8.76e+01    56s
  40   5.16434368e+10  5.16461239e+10  2.07e-04 8.22e-03  4.88e+01    61s
  41   5.16438797e+10  5.16455645e+10  6.36e-05 7.66e-03  3.09e+01    63s
  42   5.16439415e+10  5.16452501e+10  4.84e-05 6.27e-03  2.40e+01    66s
  43   5.16441131e+10  5.16446117e+10  6.22e-06 5.61e-03  9.33e+00    70s
  44   5.16441405e+10  5.16444980e+10  6.32e-07 5.72e-03  6.77e+00    73s
  45   5.16441458e+10  5.16442168e+10  5.97e-06 5.93e-03  1.53e+00    75s
  46   5.16441512e+10  5.16441830e+10  3.02e-05 5.99e-03  8.30e-01    77s
  47   5.16441518e+10  5.16441611e+10  1.39e-04 6.03e-03  4.22e-01    78s
  48   5.16441520e+10  5.16441461e+10  1.13e-04 6.06e-03  1.47e-01    79s
  49   5.16441521e+10  5.16441388e+10  3.34e-05 6.08e-03  1.40e-02    81s
  50   5.16441522e+10  5.16441387e+10  3.32e-04 6.08e-03  1.14e-02    82s
  51   5.16441521e+10  5.16441381e+10  3.24e-04 1.24e-02  2.53e-02    85s
  52   5.16441518e+10  5.16441369e+10  2.54e-04 4.65e-04  2.22e-02    86s
  53   5.16441525e+10  5.16441380e+10  3.21e-05 4.10e-04  1.34e-02    87s
  54   5.16441529e+10  5.16441369e+10  7.32e-05 4.57e-04  1.15e-02    89s
  55   5.16441529e+10  5.16441369e+10  3.19e-04 4.57e-04  1.14e-02    90s
  56   5.16441529e+10  5.16441369e+10  3.19e-04 4.57e-04  1.14e-02    92s
  57   5.16441529e+10  5.16441369e+10  3.19e-04 4.57e-04  1.14e-02    94s
  58   5.16441529e+10  5.16441369e+10  3.19e-04 4.57e-04  1.14e-02    95s
  59   5.16441529e+10  5.16441369e+10  4.90e-04 4.57e-04  1.14e-02    97s
  60   5.16441529e+10  5.16441369e+10  4.90e-04 4.57e-04  1.14e-02    99s

Barrier solved model in 60 iterations and 98.90 seconds
Optimal objective 5.16441521e+10

Crossover log...

    7270 DPushes remaining with DInf 0.0000000e+00               100s
    5350 DPushes remaining with DInf 0.0000000e+00               100s
    2742 DPushes remaining with DInf 0.0000000e+00               105s
    1755 DPushes remaining with DInf 0.0000000e+00               110s
    1154 DPushes remaining with DInf 0.0000000e+00               115s
       0 DPushes remaining with DInf 0.0000000e+00               117s

   40767 PPushes remaining with PInf 7.7695164e-03               117s
    4607 PPushes remaining with PInf 1.9204483e+06               120s
       0 PPushes remaining with PInf 1.0948885e+07               123s

Restart crossover...


    7270 DPushes remaining with DInf 0.0000000e+00               123s
    1407 DPushes remaining with DInf 0.0000000e+00               125s
       0 DPushes remaining with DInf 0.0000000e+00               127s

   40767 PPushes remaining with PInf 1.4842380e-02               127s
    1455 PPushes remaining with PInf 4.5782363e+05               132s
       0 PPushes remaining with PInf 1.6213102e+06               132s

  Push phase complete: Pinf 1.6213102e+06, Dinf 6.4595122e+06    132s

Iteration    Objective       Primal Inf.    Dual Inf.      Time
   46882    5.1642462e+10   0.000000e+00   6.459512e+06    132s
Extra simplex iterations after uncrush: 618

Solved with barrier
Solved in 48839 iterations and 134.68 seconds
Infeasible model

User-callback calls 100623, time in user-callback 0.32 sec

Gurobi 9.1.2 (linux64) logging started Tue Jul  6 19:02:02 2021


Gurobi 9.1.2 (linux64) logging started Tue Jul  6 19:02:05 2021

Gurobi Optimizer version 9.1.2 build v9.1.2rc0 (linux64)
Thread count: 40 physical cores, 40 logical processors, using up to 32 threads
Optimize a model with 59682 rows, 25295 columns and 179859 nonzeros
Model fingerprint: 0xecd974fa
Coefficient statistics:
  Matrix range     [3e-04, 4e+00]
  Objective range  [1e+01, 4e+05]
  Bounds range     [1e+03, 8e+06]
  RHS range        [6e+00, 3e+07]

Concurrent LP optimizer: primal simplex, dual simplex, and barrier
Showing barrier log only...

Presolve removed 18543 rows and 6517 columns
Presolve removed 7795 rows and 15870 columns
Presolve time: 0.66s
Presolved: 17500 rows, 43812 columns, 153800 nonzeros

Ordering time: 3.07s

Barrier statistics:
 Dense cols : 2
 Free vars  : 352
 AA' NZ     : 1.924e+05
 Factor NZ  : 1.443e+06 (roughly 40 MBytes of memory)
 Factor Ops : 2.165e+08 (less than 1 second per iteration)
 Threads    : 30

                  Objective                Residual
Iter       Primal          Dual         Primal    Dual     Compl     Time
   0  -3.80469462e+14 -1.50843290e+12  7.56e+07 1.09e+04  3.28e+11     5s
   1  -1.24182989e+14  2.66301170e+14  2.35e+07 1.70e+05  9.71e+10     6s
   2  -7.94715488e+13  2.83113257e+14  1.48e+07 6.04e+04  5.35e+10     7s
   3  -2.82087474e+13  2.44498499e+14  5.33e+06 2.72e+04  2.14e+10     8s
   4  -1.92538014e+13  1.72865830e+14  1.29e+06 9.89e+03  7.56e+09     9s
   5  -8.35870137e+12  9.56682467e+13  3.25e+05 4.55e+03  3.02e+09    10s
   6  -3.78849763e+12  4.26184103e+13  1.10e+05 1.79e+03  1.20e+09    11s
   7  -1.65355645e+12  1.98568433e+13  3.59e+04 7.68e+02  4.95e+08    12s
   8  -6.52047055e+11  5.47324222e+12  8.04e+03 1.81e+02  1.28e+08    13s
   9  -1.02365492e+11  1.54065747e+12  3.55e+02 4.51e+01  3.13e+07    14s
  10  -2.02619367e+10  5.91001518e+11  4.64e+01 1.58e+01  1.14e+07    15s
  11   5.75255939e+09  3.90075302e+11  2.07e+01 1.01e+01  7.16e+06    16s
  12   1.14056784e+10  3.55246657e+11  1.83e+01 9.00e+00  6.40e+06    17s
  13   1.58397162e+10  2.07319797e+11  1.49e+01 4.80e+00  3.55e+06    17s
  14   2.52193238e+10  1.39527230e+11  9.21e+00 2.78e+00  2.11e+06    18s
  15   3.41075677e+10  1.02297802e+11  5.50e+00 1.61e+00  1.25e+06    19s
  16   4.33896938e+10  8.48930409e+10  2.51e+00 1.03e+00  7.65e+05    20s
  17   4.46682814e+10  7.43560633e+10  2.13e+00 6.84e-01  5.45e+05    21s
  18   4.88333271e+10  6.13332720e+10  8.22e-01 2.60e-01  2.28e+05    22s
  19   5.03301412e+10  5.59478159e+10  3.25e-01 1.06e-01  1.02e+05    23s
  20   5.09907455e+10  5.39858927e+10  1.42e-01 5.67e-02  5.44e+04    24s
  21   5.11285768e+10  5.31799047e+10  1.10e-01 3.63e-02  3.72e+04    25s
  22   5.12422711e+10  5.28753172e+10  8.49e-02 2.87e-02  2.96e+04    26s
  23   5.13407053e+10  5.26410185e+10  6.37e-02 2.33e-02  2.36e+04    27s
  24   5.14054462e+10  5.23720748e+10  4.87e-02 1.67e-02  1.75e+04    27s
  25   5.14768290e+10  5.21186516e+10  3.37e-02 1.06e-02  1.16e+04    29s
  26   5.15237849e+10  5.19903961e+10  2.43e-02 9.52e-03  8.43e+03    30s
  27   5.15534843e+10  5.18674355e+10  1.82e-02 9.10e-03  5.66e+03    31s
  28   5.15860055e+10  5.17914610e+10  1.16e-02 8.59e-03  3.70e+03    32s
  29   5.16021179e+10  5.17578092e+10  8.49e-03 9.97e-03  2.81e+03    33s
  30   5.16117989e+10  5.17233774e+10  6.51e-03 1.62e-02  2.01e+03    34s
  31   5.16196884e+10  5.16939944e+10  4.90e-03 2.12e-02  1.33e+03    35s
  32   5.16250315e+10  5.16820957e+10  3.81e-03 2.26e-02  1.02e+03    37s
  33   5.16313297e+10  5.16676524e+10  2.54e-03 2.34e-02  6.51e+02    39s
  34   5.16355009e+10  5.16608206e+10  1.68e-03 1.97e-02  4.54e+02    42s
  35   5.16387392e+10  5.16576824e+10  1.63e-03 1.63e-02  3.41e+02    46s
  36   5.16408830e+10  5.16539539e+10  9.46e-04 1.21e-02  2.36e+02    47s
  37   5.16417409e+10  5.16504508e+10  6.86e-04 8.30e-03  1.57e+02    50s
  38   5.16422539e+10  5.16496602e+10  5.48e-04 9.27e-03  1.34e+02    54s
  39   5.16424950e+10  5.16473618e+10  4.99e-04 8.26e-03  8.76e+01    57s
  40   5.16434368e+10  5.16461239e+10  2.07e-04 8.22e-03  4.88e+01    61s
  41   5.16438797e+10  5.16455645e+10  6.36e-05 7.66e-03  3.09e+01    64s
  42   5.16439415e+10  5.16452501e+10  4.84e-05 6.27e-03  2.40e+01    66s
  43   5.16441131e+10  5.16446117e+10  6.22e-06 5.61e-03  9.33e+00    70s
  44   5.16441405e+10  5.16444980e+10  6.32e-07 5.72e-03  6.77e+00    72s
  45   5.16441458e+10  5.16442168e+10  5.97e-06 5.93e-03  1.53e+00    75s
  46   5.16441512e+10  5.16441830e+10  3.02e-05 5.99e-03  8.30e-01    77s
  47   5.16441518e+10  5.16441611e+10  1.39e-04 6.03e-03  4.22e-01    78s
  48   5.16441520e+10  5.16441461e+10  1.13e-04 6.06e-03  1.47e-01    79s
  49   5.16441521e+10  5.16441388e+10  3.34e-05 6.08e-03  1.40e-02    81s
  50   5.16441522e+10  5.16441387e+10  3.32e-04 6.08e-03  1.14e-02    82s
  51   5.16441521e+10  5.16441381e+10  3.24e-04 1.24e-02  2.53e-02    85s
  52   5.16441518e+10  5.16441369e+10  2.54e-04 4.65e-04  2.22e-02    86s
  53   5.16441525e+10  5.16441380e+10  3.21e-05 4.10e-04  1.34e-02    88s
  54   5.16441529e+10  5.16441369e+10  7.32e-05 4.57e-04  1.15e-02    89s
  55   5.16441529e+10  5.16441369e+10  3.19e-04 4.57e-04  1.14e-02    90s
  56   5.16441529e+10  5.16441369e+10  3.19e-04 4.57e-04  1.14e-02    92s
  57   5.16441529e+10  5.16441369e+10  3.19e-04 4.57e-04  1.14e-02    93s
  58   5.16441529e+10  5.16441369e+10  3.19e-04 4.57e-04  1.14e-02    95s
  59   5.16441529e+10  5.16441369e+10  4.90e-04 4.57e-04  1.14e-02    97s
  60   5.16441529e+10  5.16441369e+10  4.90e-04 4.57e-04  1.14e-02    99s

Barrier solved model in 60 iterations and 98.67 seconds
Optimal objective 5.16441521e+10

Crossover log...

    7270 DPushes remaining with DInf 0.0000000e+00                99s
    4876 DPushes remaining with DInf 0.0000000e+00               100s
    2742 DPushes remaining with DInf 0.0000000e+00               105s
    1570 DPushes remaining with DInf 0.0000000e+00               112s
     850 DPushes remaining with DInf 0.0000000e+00               115s
       0 DPushes remaining with DInf 0.0000000e+00               116s

   40767 PPushes remaining with PInf 7.7695164e-03               116s
     251 PPushes remaining with PInf 1.0780755e+07               123s
       0 PPushes remaining with PInf 1.0948885e+07               123s

Restart crossover...


    7270 DPushes remaining with DInf 0.0000000e+00               123s
     831 DPushes remaining with DInf 0.0000000e+00               125s
       0 DPushes remaining with DInf 0.0000000e+00               126s

   40767 PPushes remaining with PInf 1.4842380e-02               126s
    1455 PPushes remaining with PInf 4.5782363e+05               132s
       0 PPushes remaining with PInf 1.6213102e+06               132s

  Push phase complete: Pinf 1.6213102e+06, Dinf 6.4595122e+06    132s

Iteration    Objective       Primal Inf.    Dual Inf.      Time
   46882    5.1642462e+10   0.000000e+00   6.459512e+06    132s
Extra simplex iterations after uncrush: 618

Solved with barrier
Solved in 48839 iterations and 134.10 seconds
Infeasible model

User-callback calls 100290, time in user-callback 0.17 sec

Gurobi 9.1.2 (linux64) logging started Tue Jul  6 19:06:24 2021


Gurobi 9.1.2 (linux64) logging started Tue Jul  6 19:06:26 2021

Gurobi Optimizer version 9.1.2 build v9.1.2rc0 (linux64)
Thread count: 40 physical cores, 40 logical processors, using up to 32 threads
Optimize a model with 59682 rows, 25295 columns and 179859 nonzeros
Model fingerprint: 0xecd974fa
Coefficient statistics:
  Matrix range     [3e-04, 4e+00]
  Objective range  [1e+01, 4e+05]
  Bounds range     [1e+03, 8e+06]
  RHS range        [6e+00, 3e+07]

Concurrent LP optimizer: primal simplex, dual simplex, and barrier
Showing barrier log only...

Presolve removed 18583 rows and 6549 columns
Presolve removed 7827 rows and 15902 columns
Presolve time: 0.65s
Presolved: 17468 rows, 43780 columns, 154590 nonzeros

Ordering time: 3.12s

Barrier statistics:
 Dense cols : 2
 Free vars  : 320
 AA' NZ     : 1.928e+05
 Factor NZ  : 1.458e+06 (roughly 40 MBytes of memory)
 Factor Ops : 2.223e+08 (less than 1 second per iteration)
 Threads    : 30

                  Objective                Residual
Iter       Primal          Dual         Primal    Dual     Compl     Time
   0  -1.78358887e+14 -7.95050765e+11  8.24e+06 1.63e+06  1.35e+12     5s
   1  -6.37418004e+13  6.79067009e+14  2.10e+06 2.49e+07  3.77e+11     6s
   2  -4.72576322e+13  8.22567933e+14  8.31e+05 8.69e+06  1.52e+11     7s
   3  -6.61623558e+13  7.42007976e+14  2.19e+05 4.06e+06  5.51e+10     8s
   4  -5.49320821e+13  4.72369319e+14  1.71e+04 1.39e+06  1.54e+10     9s
   5  -2.02871087e+13  1.01521676e+14  9.63e+02 2.18e+05  2.74e+09    10s
   6  -1.76153608e+12  2.75158286e+13  4.60e+00 5.59e+04  6.40e+08    11s
   7  -1.18110274e+12  1.32276362e+13  3.13e+00 2.53e+04  3.06e+08    12s
   8  -6.93383741e+11  4.59942995e+12  8.12e-02 8.78e+03  1.07e+08    13s
   9  -2.10147960e+11  1.82370881e+12  3.53e-02 3.19e+03  3.91e+07    14s
  10  -5.28131941e+10  4.49506581e+11  9.93e-03 7.20e+02  9.32e+06    15s
  11   3.44508830e+09  1.78977750e+11  4.97e-03 2.09e+02  3.18e+06    16s
  12   1.96958348e+10  1.18451166e+11  3.34e-03 1.08e+02  1.78e+06    17s
  13   3.35771975e+10  1.01203502e+11  1.92e-03 7.79e+01  1.22e+06    18s
  14   4.20314859e+10  8.43356008e+10  1.09e-03 4.99e+01  7.61e+05    19s
  15   4.47438412e+10  7.62485540e+10  7.74e-04 3.70e+01  5.66e+05    20s
  16   4.78493841e+10  7.04478850e+10  4.63e-04 2.78e+01  4.06e+05    21s
  17   4.90633671e+10  6.70297574e+10  3.31e-04 2.26e+01  3.23e+05    21s
  18   5.00030324e+10  5.78663607e+10  1.91e-04 8.44e+00  1.41e+05    23s
  19   5.08117926e+10  5.47197303e+10  9.20e-05 4.00e+00  6.98e+04    24s
  20   5.10595231e+10  5.37449262e+10  5.61e-05 2.71e+00  4.79e+04    25s
  21   5.11686256e+10  5.32073604e+10  4.49e-05 1.99e+00  3.64e+04    26s
  22   5.12917002e+10  5.29259708e+10  3.52e-05 1.62e+00  2.92e+04    27s
  23   5.13279809e+10  5.26781618e+10  3.11e-05 1.29e+00  2.41e+04    27s
  24   5.14489862e+10  5.22842108e+10  1.94e-05 7.84e-01  1.49e+04    28s
  25   5.14991191e+10  5.21176160e+10  1.47e-05 5.73e-01  1.10e+04    29s
  26   5.15129237e+10  5.20269606e+10  1.32e-05 4.61e-01  9.14e+03    30s
  27   5.15682702e+10  5.19077927e+10  6.47e-06 3.13e-01  6.05e+03    32s
  28   5.15784704e+10  5.18491478e+10  5.93e-06 2.40e-01  4.81e+03    32s
  29   5.15984001e+10  5.17998212e+10  3.91e-06 1.80e-01  3.58e+03    34s
  30   5.16128102e+10  5.17485785e+10  3.40e-06 1.18e-01  2.41e+03    35s
  31   5.16191770e+10  5.17305188e+10  2.07e-06 9.69e-02  1.98e+03    36s
  32   5.16282411e+10  5.16969150e+10  2.10e-06 5.80e-02  1.22e+03    37s
  33   5.16306382e+10  5.16880815e+10  1.86e-06 4.79e-02  1.02e+03    38s
  34   5.16357786e+10  5.16783650e+10  4.54e-06 4.35e-02  7.58e+02    39s
  35   5.16386882e+10  5.16632973e+10  5.17e-06 3.90e-02  4.37e+02    40s
  36   5.16408341e+10  5.16595580e+10  2.42e-05 3.45e-02  3.33e+02    41s
  37   5.16413772e+10  5.16572410e+10  2.09e-05 3.04e-02  2.82e+02    42s
  38   5.16420846e+10  5.16546040e+10  1.78e-05 2.57e-02  2.23e+02    43s
  39   5.16425575e+10  5.16510885e+10  1.25e-05 1.98e-02  1.52e+02    44s
  40   5.16431004e+10  5.16485884e+10  5.88e-06 1.85e-02  9.77e+01    45s
  41   5.16434357e+10  5.16471938e+10  1.16e-05 1.82e-02  6.70e+01    47s
  42   5.16436771e+10  5.16462587e+10  6.52e-06 1.71e-02  4.61e+01    48s
  43   5.16437391e+10  5.16460276e+10  7.94e-06 1.62e-02  4.09e+01    48s
  44   5.16438955e+10  5.16458617e+10  8.90e-06 1.49e-02  3.52e+01    49s
  45   5.16439787e+10  5.16451419e+10  3.32e-05 9.36e-03  2.08e+01    50s
  46   5.16440952e+10  5.16447203e+10  5.53e-05 5.76e-03  1.12e+01    51s
  47   5.16441108e+10  5.16443381e+10  2.64e-05 5.14e-03  4.12e+00    52s
  48   5.16441197e+10  5.16442443e+10  5.27e-05 5.29e-03  2.29e+00    54s
  49   5.16441212e+10  5.16442037e+10  2.88e-05 5.35e-03  1.54e+00    54s
  50   5.16441215e+10  5.16441687e+10  8.11e-05 5.41e-03  9.06e-01    56s
  51   5.16441219e+10  5.16441443e+10  1.56e-04 5.45e-03  4.66e-01    57s
  52   5.16441219e+10  5.16441199e+10  8.89e-05 5.49e-03  3.11e-02    58s
  53   5.16441225e+10  5.16441188e+10  1.19e-05 5.49e-03  3.97e-03    59s
  54   5.16441263e+10  5.16441186e+10  1.29e-05 5.49e-03  2.81e-04    60s
  55   5.16441263e+10  5.16441186e+10  1.25e-04 5.49e-03  2.81e-04    61s

Barrier solved model in 55 iterations and 61.14 seconds
Optimal objective 5.16441263e+10

Crossover log...

    7011 DPushes remaining with DInf 0.0000000e+00                62s
    2518 DPushes remaining with DInf 0.0000000e+00                65s
    1891 DPushes remaining with DInf 0.0000000e+00                70s
     526 DPushes remaining with DInf 0.0000000e+00                77s
       0 DPushes remaining with DInf 0.0000000e+00                77s

   28771 PPushes remaining with PInf 3.3722635e-04                77s
       0 PPushes remaining with PInf 2.5608743e+04                78s

  Push phase complete: Pinf 2.5608743e+04, Dinf 5.1798482e+04     78s

Iteration    Objective       Primal Inf.    Dual Inf.      Time
   35070    5.1644154e+10   0.000000e+00   5.179848e+04     78s
   36472    5.1553427e+10   4.284289e+02   4.310086e+08     80s
Extra simplex iterations after uncrush: 4822
   40205    5.1644972e+10   0.000000e+00   0.000000e+00     85s

Solved with barrier
Solved in 40205 iterations and 85.06 seconds
Optimal objective  5.164497180e+10

User-callback calls 43559, time in user-callback 0.03 sec

Gurobi 9.1.2 (linux64) logging started Fri Jul  9 10:45:17 2021


Gurobi 9.1.2 (linux64) logging started Fri Jul  9 10:45:19 2021

Gurobi Optimizer version 9.1.2 build v9.1.2rc0 (linux64)
Thread count: 40 physical cores, 40 logical processors, using up to 32 threads
Optimize a model with 59682 rows, 25295 columns and 179859 nonzeros
Model fingerprint: 0x98cc1bff
Coefficient statistics:
  Matrix range     [1e-06, 4e-03]
  Objective range  [1e+01, 4e+05]
  Bounds range     [1e+03, 8e+06]
  RHS range        [6e-03, 8e+05]

Concurrent LP optimizer: primal simplex, dual simplex, and barrier
Showing barrier log only...

Presolve removed 17799 rows and 5773 columns
Presolve removed 7009 rows and 15071 columns
Presolve time: 0.49s
Presolved: 18286 rows, 44611 columns, 147308 nonzeros

Ordering time: 2.61s

Barrier statistics:
 Dense cols : 2
 Free vars  : 1112
 AA' NZ     : 1.867e+05
 Factor NZ  : 1.445e+06 (roughly 40 MBytes of memory)
 Factor Ops : 2.077e+08 (less than 1 second per iteration)
 Threads    : 30

                  Objective                Residual
Iter       Primal          Dual         Primal    Dual     Compl     Time
   0  -1.72671865e+14 -4.44668344e+11  3.12e+08 6.27e+03  5.35e+11     4s
   1  -8.22845254e+13  1.09020137e+14  1.11e+08 1.10e+05  1.91e+11     7s
   2  -5.69081149e+13  1.51653378e+14  5.49e+07 5.45e+04  9.13e+10    11s
   3  -4.54334101e+13  1.72064830e+14  1.20e+07 2.27e+04  2.57e+10    16s
   4  -2.99960922e+13  1.37980726e+14  1.81e+06 8.17e+03  6.89e+09    20s
   5  -1.26850630e+13  4.38747140e+13  1.94e+05 1.14e+03  1.30e+09    22s
   6  -2.13756732e+12  1.21733607e+13  2.32e+04 2.81e+02  2.96e+08    24s
   7  -6.87839626e+11  4.37262556e+12  8.14e+03 7.96e+01  9.96e+07    27s
   8  -4.70626771e+11  2.68527673e+12  6.48e+03 4.07e+01  6.07e+07    29s
   9  -5.50333725e+11  2.35387124e+12  5.60e+03 3.37e+01  5.52e+07    31s
  10  -2.11093830e+11  9.34363724e+11  7.39e+02 5.85e+00  2.07e+07    35s
  11  -4.07416538e+10  2.61593153e+11  1.53e+02 4.23e-01  5.40e+06    37s
  12   3.68318223e+09  1.37115740e+11  5.91e+01 1.85e-01  2.37e+06    41s
  13   2.13860160e+10  1.06693393e+11  3.43e+01 1.20e-01  1.51e+06    44s
  14   3.32774578e+10  7.54202154e+10  2.00e+01 5.20e-02  7.43e+05    48s
  15   3.91259103e+10  6.71353813e+10  1.28e+01 3.48e-02  4.94e+05    50s
  16   4.32623995e+10  5.96519225e+10  7.34e+00 1.96e-02  2.89e+05    55s
  17   4.45603987e+10  5.54632471e+10  5.47e+00 1.17e-02  1.92e+05    58s
  18   4.56939700e+10  5.23008449e+10  3.96e+00 5.73e-03  1.16e+05    62s
  19   4.66270170e+10  5.12960998e+10  2.72e+00 3.95e-03  8.17e+04    66s
  20   4.74749155e+10  5.05016331e+10  1.62e+00 2.66e-03  5.30e+04    71s
  21   4.75597575e+10  5.02641596e+10  1.51e+00 2.31e-03  4.73e+04    74s
  22   4.77249448e+10  4.99141948e+10  1.30e+00 1.75e-03  3.83e+04    79s
  23   4.81105150e+10  4.95903496e+10  7.90e-01 1.24e-03  2.59e+04    85s
  24   4.82061409e+10  4.94498406e+10  6.61e-01 1.04e-03  2.18e+04    91s
  25   4.83676300e+10  4.92444680e+10  4.49e-01 7.26e-04  1.53e+04    97s
  26   4.84905914e+10  4.91430237e+10  3.00e-01 5.75e-04  1.14e+04   103s
  27   4.85349776e+10  4.90412188e+10  2.38e-01 4.31e-04  8.87e+03   107s
  28   4.85874145e+10  4.89597842e+10  1.70e-01 3.15e-04  6.52e+03   114s
  29   4.86141519e+10  4.88932739e+10  1.35e-01 2.22e-04  4.88e+03   122s
  30   4.86467419e+10  4.88446499e+10  9.12e-02 1.57e-04  3.46e+03   129s
  31   4.86646483e+10  4.88086912e+10  6.89e-02 1.09e-04  2.52e+03   136s
  32   4.86786588e+10  4.87850227e+10  5.08e-02 7.86e-05  1.86e+03   144s
  33   4.86924345e+10  4.87679718e+10  3.32e-02 5.74e-05  1.32e+03   152s
  34   4.86973722e+10  4.87527870e+10  2.67e-02 3.89e-05  9.69e+02   157s
  35   4.87012936e+10  4.87474193e+10  2.12e-02 3.26e-05  8.06e+02   162s
  36   4.87053248e+10  4.87375337e+10  1.57e-02 2.19e-05  5.63e+02   172s
  37   4.87080825e+10  4.87346539e+10  1.22e-02 1.88e-05  4.65e+02   181s
  38   4.87085504e+10  4.87317938e+10  1.16e-02 1.57e-05  4.06e+02   192s
  39   4.87092798e+10  4.87302973e+10  1.06e-02 1.40e-05  3.67e+02   202s
  40   4.87112706e+10  4.87268661e+10  8.00e-03 1.00e-05  2.72e+02   213s
  41   4.87123610e+10  4.87246758e+10  6.53e-03 7.57e-06  2.15e+02   225s
  42   4.87133159e+10  4.87228264e+10  5.22e-03 5.52e-06  1.66e+02   237s
  43   4.87148512e+10  4.87220644e+10  3.17e-03 4.70e-06  1.26e+02   250s
  44   4.87154118e+10  4.87210745e+10  2.42e-03 3.63e-06  9.89e+01   263s
  45   4.87159560e+10  4.87199174e+10  1.72e-03 2.44e-06  6.92e+01   278s
  46   4.87162529e+10  4.87193197e+10  1.31e-03 1.89e-06  5.36e+01   296s
  47   4.87165458e+10  4.87189313e+10  9.22e-04 1.53e-06  4.17e+01   316s
  48   4.87166919e+10  4.87183360e+10  7.38e-04 9.54e-07  2.87e+01   336s
  49   4.87169626e+10  4.87178099e+10  3.78e-04 7.49e-07  1.48e+01   353s
  50   4.87171419e+10  4.87176706e+10  1.38e-04 5.53e-07  9.24e+00   375s
  51   4.87171835e+10  4.87174524e+10  8.78e-05 2.47e-07  4.69e+00   389s
  52   4.87172263e+10  4.87173394e+10  3.68e-05 5.28e-07  1.97e+00   402s
  53   4.87172505e+10  4.87172837e+10  3.74e-05 1.69e-04  5.81e-01   405s
  54   4.87172564e+10  4.87172701e+10  5.93e-05 2.11e-04  2.40e-01   409s
  55   4.87172579e+10  4.87172607e+10  6.13e-05 2.53e-05  4.76e-02   414s
  56   4.87172581e+10  4.87172585e+10  2.63e-04 5.27e-06  5.82e-03   417s
  57   4.87172581e+10  4.87172585e+10  3.54e-04 5.27e-06  5.82e-03   419s

Barrier solved model in 57 iterations and 419.17 seconds
Optimal objective 4.87172581e+10

Crossover log...

    5370 DPushes remaining with DInf 0.0000000e+00               420s
    1937 DPushes remaining with DInf 0.0000000e+00               420s
       0 DPushes remaining with DInf 0.0000000e+00               423s

   40222 PPushes remaining with PInf 7.6086555e-03               423s
   26696 PPushes remaining with PInf 4.5863612e-02               428s
   12485 PPushes remaining with PInf 2.4434858e-02               430s
       0 PPushes remaining with PInf 0.0000000e+00               433s

  Push phase complete: Pinf 0.0000000e+00, Dinf 9.1741554e+05    433s

Iteration    Objective       Primal Inf.    Dual Inf.      Time
   45196    4.8717258e+10   0.000000e+00   9.174155e+05    433s
   45886    4.8717258e+10   0.000000e+00   0.000000e+00    434s

Solved with barrier
Solved in 45886 iterations and 433.92 seconds
Optimal objective  4.871725818e+10

User-callback calls 47965, time in user-callback 0.01 sec
